========================================================== 
File name: C:\DEGR\assets\definitions\MSRCPSP_Gen\500_10_512_10_A.def
Creation date: Sat May 06 09:15:25 CEST 2023
Website: http://imopse.ii.pwr.edu.pl/ 
Reference: 
Myszkowski P. B., Skowronski M. E., Olech L., Oslizlo K., 
Hybrid Ant Colony Optimization in solving Multi-Skill Resource-Constrained Project Scheduling Problem, 
Soft Computing, DOI: DOI 10.1007/s00500-014-1455-x 
========================================================== 
General characteristics: 
Tasks: 500
Resources: 10
Precedence relations: 511
Number of skill types: 10
========================================================== 
ResourceID 	 Salary 	 Skills 
1	 	 	32.5	 	 Q5: 1 	  Q4: 2 	  Q6: 0 	  Q0: 2 	  Q2: 1 	  Q3: 3 	  Q1: 1 	  Q8: 1 	 
2	 	 	33.1	 	 Q6: 1 	  Q4: 3 	  Q1: 0 	  Q2: 0 	  Q3: 0 	  Q8: 1 	  Q5: 3 	  Q7: 0 	  Q0: 2 	 
3	 	 	19.5	 	 Q9: 3 	  Q3: 0 	  Q4: 2 	  Q8: 2 	  Q0: 1 	  Q1: 0 	 
4	 	 	85.8	 	 Q0: 1 	  Q7: 1 	  Q9: 1 	  Q4: 1 	  Q8: 1 	 
5	 	 	45.7	 	 Q7: 3 	  Q8: 2 	  Q9: 1 	  Q6: 1 	  Q4: 2 	  Q2: 0 	 
6	 	 	25.9	 	 Q4: 0 	  Q8: 3 	 
7	 	 	72.7	 	 Q3: 3 	  Q6: 0 	  Q0: 3 	  Q9: 3 	  Q7: 3 	  Q5: 1 	  Q1: 2 	  Q8: 3 	 
8	 	 	77.3	 	 Q2: 3 	  Q4: 0 	  Q6: 3 	  Q9: 0 	  Q5: 1 	 
9	 	 	23.9	 	 Q5: 3 	  Q4: 2 	  Q7: 0 	  Q6: 2 	  Q0: 2 	  Q1: 0 	  Q3: 2 	  Q8: 2 	 
10	 	 	18.6	 	 Q3: 0 	  Q9: 1 	 
========================================================== 
TaskID 	 Duration 	 Skill 	 Predecessor IDs 
1	37	Q1:	0
2	33	Q2:	1
3	17	Q0:	1
4	40	Q4:	0
5	30	Q6:	1
6	29	Q9:	1
7	34	Q3:	0
8	30	Q7:	3
9	27	Q4:	1	6
10	27	Q4:	3
11	24	Q6:	1
12	35	Q4:	3
13	19	Q1:	0
14	27	Q9:	1
15	35	Q2:	1	10
16	38	Q4:	1
17	28	Q4:	2
18	22	Q2:	1
19	19	Q7:	0
20	15	Q2:	3
21	40	Q8:	2
22	38	Q0:	3
23	34	Q0:	3
24	19	Q8:	2
25	12	Q9:	3	1
26	26	Q8:	2
27	25	Q4:	1
28	39	Q6:	3
29	34	Q0:	2
30	10	Q8:	2
31	20	Q8:	1
32	9	Q5:	1
33	24	Q8:	3
34	33	Q6:	1
35	19	Q4:	2
36	10	Q8:	1
37	25	Q8:	2
38	13	Q9:	3
39	15	Q1:	2
40	22	Q6:	2
41	13	Q6:	2
42	28	Q8:	1
43	25	Q0:	2
44	28	Q5:	3
45	31	Q1:	2
46	11	Q0:	2
47	14	Q5:	1
48	25	Q0:	2
49	18	Q7:	0
50	25	Q9:	1	35
51	28	Q5:	3
52	33	Q0:	3
53	32	Q3:	3
54	33	Q8:	1
55	40	Q4:	2	49
56	16	Q1:	0
57	20	Q1:	0	37
58	11	Q2:	3	17
59	17	Q7:	1
60	25	Q4:	3
61	32	Q7:	1
62	12	Q3:	3
63	18	Q9:	0
64	11	Q1:	0
65	10	Q6:	0	14
66	27	Q7:	3	8
67	13	Q5:	3
68	19	Q8:	1
69	30	Q3:	0
70	28	Q8:	3
71	25	Q8:	3
72	37	Q3:	2
73	14	Q7:	3	28
74	19	Q8:	2
75	26	Q6:	1	39
76	22	Q3:	2
77	38	Q1:	0
78	37	Q7:	0
79	40	Q6:	3
80	39	Q4:	3
81	38	Q6:	0
82	29	Q5:	3	20
83	15	Q8:	3	72
84	36	Q3:	2
85	39	Q9:	0
86	27	Q3:	2
87	23	Q8:	2	79
88	18	Q2:	1
89	26	Q9:	3
90	10	Q7:	0
91	34	Q8:	2
92	27	Q8:	1
93	26	Q0:	1	68
94	18	Q5:	3
95	11	Q1:	0	51
96	12	Q1:	1	62
97	16	Q8:	2
98	38	Q8:	1	94	85
99	29	Q4:	1	41	72
100	25	Q8:	1
101	15	Q8:	1
102	19	Q8:	1
103	22	Q6:	3
104	35	Q7:	1
105	30	Q9:	1
106	26	Q2:	0	43
107	11	Q0:	1
108	17	Q8:	3
109	22	Q9:	1
110	14	Q5:	3	10
111	12	Q2:	0
112	36	Q3:	3
113	19	Q5:	3	42
114	30	Q0:	2
115	37	Q4:	3
116	19	Q6:	1	43
117	31	Q7:	0	81	96
118	25	Q8:	3	43
119	33	Q0:	1
120	17	Q0:	3
121	15	Q8:	1	33
122	15	Q1:	0
123	27	Q6:	3
124	11	Q3:	3
125	11	Q3:	3
126	19	Q9:	0	115
127	22	Q9:	0
128	16	Q6:	1	73
129	16	Q7:	0	69
130	34	Q7:	3
131	19	Q8:	1
132	9	Q4:	2	42
133	17	Q3:	2	63
134	9	Q6:	3
135	15	Q4:	0
136	19	Q7:	1	44
137	16	Q1:	2	74
138	11	Q7:	1
139	16	Q0:	2	89
140	14	Q4:	0	74	23
141	16	Q3:	0
142	25	Q3:	2
143	29	Q3:	3	131
144	20	Q7:	3	9
145	33	Q7:	3
146	39	Q6:	1
147	28	Q4:	0
148	11	Q9:	1
149	29	Q3:	0
150	32	Q6:	1
151	31	Q2:	1
152	27	Q0:	1
153	40	Q6:	2
154	33	Q0:	2
155	12	Q1:	1	81	80	86
156	13	Q2:	1	28
157	39	Q2:	1
158	21	Q0:	1	105
159	19	Q6:	3
160	13	Q3:	3	30
161	33	Q6:	2	80
162	19	Q6:	0
163	21	Q3:	3
164	38	Q3:	0
165	10	Q7:	0
166	22	Q8:	3	124
167	12	Q9:	0	82
168	40	Q0:	3
169	12	Q4:	1
170	17	Q1:	2
171	34	Q4:	1
172	40	Q5:	1	97
173	16	Q5:	1
174	25	Q5:	3	17
175	37	Q6:	2	147
176	40	Q6:	3
177	15	Q3:	3	150
178	18	Q4:	2
179	31	Q9:	3	26
180	39	Q2:	3	145
181	12	Q8:	2
182	12	Q1:	0
183	11	Q3:	0	126
184	31	Q2:	1
185	35	Q2:	1	91	82	36
186	13	Q4:	1	144
187	23	Q5:	1	38
188	30	Q7:	3
189	25	Q9:	3	140
190	25	Q7:	1
191	35	Q3:	2	171
192	13	Q7:	0
193	19	Q1:	0	108
194	12	Q6:	1
195	12	Q6:	1	141	125	118
196	15	Q3:	2	67	7
197	13	Q4:	1	62	51
198	22	Q6:	2	64
199	28	Q7:	1
200	25	Q7:	1	196	98	110
201	28	Q0:	2
202	33	Q6:	1	121
203	39	Q9:	3	133	147
204	37	Q9:	1	39
205	18	Q0:	1	75
206	12	Q9:	3	91	126	66
207	14	Q0:	2	189
208	30	Q9:	1
209	26	Q8:	1
210	21	Q8:	3
211	20	Q1:	1	128
212	18	Q4:	1
213	26	Q3:	0	128	181	150
214	26	Q3:	2
215	38	Q6:	3
216	33	Q5:	3	24
217	25	Q1:	2	27
218	34	Q4:	1	133	112
219	33	Q4:	3
220	17	Q5:	1
221	29	Q1:	2	148
222	20	Q1:	2
223	12	Q9:	1	180	112
224	21	Q8:	3	154
225	29	Q0:	2	163	22	197
226	28	Q1:	2
227	28	Q4:	3
228	19	Q2:	0
229	39	Q2:	0
230	16	Q3:	2
231	17	Q6:	0	189	117
232	25	Q0:	1	127
233	26	Q3:	3	104
234	28	Q7:	0	201
235	33	Q4:	3
236	31	Q6:	2	34	146
237	10	Q6:	2	47
238	30	Q8:	3	101
239	11	Q3:	3	83
240	15	Q6:	0	235	66
241	20	Q6:	0
242	22	Q6:	3	30
243	24	Q0:	2	75
244	19	Q5:	1	78	36
245	13	Q3:	3	141
246	17	Q6:	2	134
247	27	Q7:	3
248	26	Q0:	2	230	103	162
249	15	Q5:	1	100	87
250	21	Q1:	2
251	40	Q9:	0	132
252	22	Q8:	1	97
253	13	Q0:	1	38	164
254	13	Q2:	1
255	36	Q2:	0
256	22	Q6:	0	227	254
257	26	Q0:	2
258	38	Q6:	3	230
259	26	Q2:	3
260	39	Q2:	3
261	30	Q4:	3	98
262	40	Q9:	3
263	19	Q2:	3	115
264	24	Q4:	0
265	15	Q5:	3
266	26	Q3:	0	241
267	15	Q2:	0	210	86
268	9	Q2:	1
269	28	Q9:	3	13
270	34	Q6:	0	249
271	11	Q6:	1
272	30	Q3:	3	35	210	13	234
273	31	Q3:	3	57	139
274	38	Q2:	1	13	203
275	29	Q0:	3	168	174
276	18	Q0:	3
277	31	Q9:	3
278	23	Q4:	3	209
279	20	Q6:	1	258
280	27	Q8:	1	19
281	23	Q8:	3	36	126	23
282	17	Q1:	2
283	15	Q8:	3
284	9	Q1:	1	57	175
285	40	Q0:	1	227
286	33	Q6:	1	100
287	38	Q1:	0
288	30	Q7:	3	97	106	287
289	36	Q1:	2	220
290	34	Q9:	1
291	25	Q0:	2	260	286	127
292	36	Q1:	2
293	12	Q3:	2	50
294	22	Q1:	2	18
295	23	Q7:	3	39
296	9	Q6:	1	294	93
297	15	Q2:	1	250	113	239	275
298	22	Q6:	2	234
299	21	Q4:	2
300	35	Q6:	3
301	33	Q7:	1
302	34	Q2:	3
303	13	Q6:	3	124	280
304	24	Q2:	0	278	64
305	15	Q4:	0	159
306	34	Q3:	2
307	21	Q4:	3	115	239
308	22	Q5:	3	148	189
309	37	Q3:	2	218
310	13	Q8:	2
311	21	Q0:	3
312	25	Q6:	2	300
313	20	Q2:	3
314	13	Q4:	2	1	247
315	31	Q3:	0	18	207	307
316	38	Q1:	1	302
317	19	Q5:	1	42	256
318	20	Q6:	2
319	14	Q1:	0	300
320	30	Q1:	2
321	30	Q5:	1
322	32	Q8:	3	155
323	13	Q4:	2	292
324	17	Q8:	3	36	138
325	11	Q3:	0	191
326	38	Q2:	0
327	23	Q2:	1	326	160
328	26	Q7:	1
329	9	Q7:	0	197
330	13	Q7:	0
331	40	Q0:	1	201
332	21	Q2:	0	145	185
333	16	Q4:	0	64
334	16	Q1:	2	147	108
335	32	Q2:	3	38	236
336	16	Q4:	0	153
337	27	Q2:	0
338	36	Q1:	0	90	282
339	33	Q3:	0	189	74
340	17	Q0:	2	174
341	28	Q4:	1	2	18
342	22	Q4:	1	81
343	26	Q0:	3	64
344	36	Q4:	1	67
345	13	Q9:	3	174
346	35	Q8:	1
347	32	Q2:	3	65	126	157	66
348	40	Q3:	3
349	14	Q9:	3	147	179	80	279
350	37	Q2:	3	102
351	25	Q8:	3	321	278	66
352	11	Q9:	0	73
353	39	Q0:	3	138	117	283	13	31
354	28	Q6:	1	151	128
355	40	Q2:	3	321	162
356	18	Q0:	1	53	203
357	39	Q7:	1	172
358	34	Q4:	1	69
359	29	Q2:	1	184	235
360	36	Q9:	3	240
361	23	Q8:	3	59	352
362	30	Q8:	2
363	40	Q2:	3	355	279	215
364	14	Q7:	1
365	21	Q4:	0	170
366	35	Q7:	3	310
367	14	Q7:	0	72	21	305
368	18	Q3:	3	302	35	220
369	13	Q4:	3
370	16	Q1:	0	340	311	274
371	9	Q2:	1	339	333
372	23	Q3:	2	14
373	29	Q8:	3	46	57
374	31	Q0:	3	309
375	36	Q9:	0	107	238
376	35	Q3:	0	104	131	290
377	28	Q8:	3	106	144
378	30	Q7:	0	67	371
379	14	Q0:	3	141	186
380	12	Q6:	0	342	276
381	37	Q5:	3
382	15	Q8:	2	1
383	23	Q4:	2	256	329
384	16	Q5:	1	37
385	12	Q5:	3	77	210
386	19	Q7:	1	240
387	18	Q9:	3	169
388	32	Q2:	3	275
389	22	Q8:	2	55
390	34	Q2:	1	376	303	58
391	12	Q5:	1	181	148	29	364
392	18	Q4:	1
393	21	Q2:	0	389	246	316	318
394	16	Q1:	1	130	140	50
395	27	Q1:	2	385	250
396	16	Q6:	3
397	38	Q0:	2
398	18	Q4:	1	185	82
399	37	Q8:	1	232	173
400	13	Q6:	0	132
401	32	Q5:	3	100	104	69
402	19	Q4:	1	362	85	342	159
403	30	Q7:	0	194	192
404	23	Q1:	2	302	170	148
405	26	Q8:	3	50
406	22	Q7:	1	174	6
407	40	Q5:	1	134
408	22	Q7:	0	51	80
409	18	Q4:	3	225	105
410	34	Q1:	0	141
411	35	Q0:	3	408	123	354
412	36	Q7:	0	256	243
413	20	Q9:	3	301	238
414	13	Q6:	3	98
415	22	Q1:	0
416	35	Q7:	0	255	3	45
417	14	Q0:	2	21	344
418	35	Q0:	3	367	320	153
419	16	Q1:	2	399	20	324
420	10	Q8:	3	140
421	24	Q8:	1	132	319	220
422	34	Q9:	0	284
423	26	Q4:	1	310
424	40	Q1:	0	157	106
425	9	Q9:	1	196	71	247
426	40	Q1:	0
427	21	Q9:	0	111
428	31	Q7:	1	71
429	13	Q5:	1
430	39	Q1:	0	70	58
431	22	Q5:	3	296	166	251
432	23	Q9:	0	129
433	36	Q6:	2
434	37	Q6:	2	62	203	234	426
435	34	Q7:	0	243
436	32	Q0:	3	226
437	36	Q7:	3
438	40	Q9:	1	228	201
439	11	Q4:	3	313	168	122
440	39	Q0:	2	305
441	25	Q0:	1	427	411	128
442	33	Q0:	1	389	25	221
443	28	Q3:	2	436	79	42	349	200
444	9	Q8:	2	390	293
445	10	Q4:	1
446	9	Q1:	1	404	363	275
447	38	Q4:	3	37	408	115
448	37	Q4:	0	69	74	260
449	37	Q6:	1	176	439	97	306
450	17	Q0:	2	209	318	208
451	12	Q3:	0	50
452	26	Q8:	3	413	227	257
453	35	Q5:	3	451	25
454	37	Q1:	2	205
455	10	Q6:	3	429	171
456	20	Q2:	0	185	263
457	38	Q6:	2	393	217
458	32	Q1:	1	221
459	40	Q9:	1	456	417	286
460	32	Q2:	1	157	378	31
461	14	Q4:	2	265
462	12	Q2:	3	204	199
463	16	Q6:	0	445	140
464	40	Q7:	0	310	153
465	40	Q4:	2	331
466	22	Q1:	0	218	289	280	179	246
467	25	Q7:	0	180	297
468	12	Q0:	1	226
469	24	Q4:	0	408	45	92
470	33	Q0:	2	76
471	34	Q2:	1	84	332
472	31	Q8:	3	395
473	38	Q4:	2
474	28	Q7:	3	398	88
475	11	Q1:	2	50	445	126	271	456
476	25	Q6:	2	274	431
477	29	Q1:	1	341	294	354
478	20	Q9:	1	196
479	25	Q6:	1	328
480	11	Q4:	1	361	154
481	23	Q4:	1	189	179	353
482	27	Q6:	2	267	52	422	311
483	18	Q8:	1	480
484	39	Q6:	2	42	81	124
485	15	Q9:	0	310	440	346	45
486	30	Q1:	2	19
487	21	Q8:	1	379	305	119
488	37	Q3:	0
489	39	Q4:	3	179
490	39	Q6:	1
491	23	Q9:	1
492	23	Q3:	3	243
493	27	Q8:	2	419	375
494	38	Q2:	0	90	9
495	40	Q2:	0
496	9	Q5:	1	79	149	382
497	16	Q5:	1
498	30	Q7:	1	358	55
499	32	Q4:	0	373	142
500	22	Q7:	0	214	369	271
========================================================== 